instances_and_solutions/roster/eprime/param/52_3_4.param
language ESSENCE' 1.0
letting shiftRequirements = [[14, 5, 9, 24], [12, 5, 9, 26], [14, 5, 9, 24], [17, 3, 9, 23], [28, 3, 9, 12], [29, 4, 8, 11], [29, 4, 8, 11]]
letting numberOfWeeks = 52
letting s_min = 3
letting s_max = 4
